
Gurobi 9.5.1 (linux64) logging started Thu 11 Aug 2022 11:13:48 AM MST

Set parameter LogFile to value "/home/local/ASUAD/kmajd1/NNRepLayer_v2/demos/walking_example/dynamic_constraint/repair_net/logs/opt_log_8_11_2022_10_0_37.log"
Gurobi Optimizer version 9.5.1 build v9.5.1rc2 (linux64)
Thread count: 48 physical cores, 96 logical processors, using up to 48 threads
Optimize a model with 902584 rows, 644584 columns and 15338424 nonzeros
Model fingerprint: 0x83cad1a6
Model has 1000 quadratic objective terms
Variable types: 388584 continuous, 256000 integer (256000 binary)
Coefficient statistics:
  Matrix range     [2e-05, 4e+02]
  Objective range  [2e-05, 1e+00]
  QObjective range [2e-02, 2e-02]
  Bounds range     [1e-03, 2e+03]
  RHS range        [1e-06, 4e+02]

Concurrent MIP optimizer: 3 concurrent instances (16 threads per instance)

Presolve removed 2000 rows and 0 columns (presolve time = 6s) ...
Presolve removed 2000 rows and 0 columns (presolve time = 10s) ...
Presolve removed 2000 rows and 0 columns (presolve time = 16s) ...
Presolve removed 2000 rows and 0 columns (presolve time = 21s) ...
Presolve removed 9680 rows and 7680 columns (presolve time = 26s) ...
Presolve removed 9680 rows and 15360 columns (presolve time = 30s) ...
Presolve removed 9680 rows and 15360 columns (presolve time = 35s) ...
Presolve removed 9680 rows and 15360 columns (presolve time = 40s) ...
Presolve removed 9680 rows and 15360 columns (presolve time = 45s) ...
Presolve removed 9680 rows and 15360 columns (presolve time = 50s) ...
Presolve removed 9680 rows and 15360 columns (presolve time = 55s) ...
Presolve removed 9680 rows and 15360 columns (presolve time = 60s) ...
Presolve removed 9680 rows and 15360 columns (presolve time = 65s) ...
Presolve removed 9680 rows and 15360 columns (presolve time = 70s) ...
Presolve removed 9680 rows and 15360 columns (presolve time = 75s) ...
Presolve removed 9680 rows and 15360 columns (presolve time = 80s) ...
Presolve removed 9680 rows and 15360 columns (presolve time = 85s) ...
Presolve removed 9680 rows and 15360 columns (presolve time = 90s) ...
Presolve removed 9680 rows and 15360 columns (presolve time = 95s) ...
Presolve removed 9680 rows and 15360 columns (presolve time = 100s) ...
Presolve removed 9680 rows and 15360 columns (presolve time = 105s) ...
Presolve removed 9680 rows and 15360 columns (presolve time = 110s) ...
Presolve removed 9680 rows and 15360 columns (presolve time = 115s) ...
Presolve removed 9680 rows and 15360 columns (presolve time = 120s) ...
Presolve removed 9680 rows and 15360 columns (presolve time = 125s) ...
Presolve removed 9680 rows and 15360 columns (presolve time = 130s) ...
Presolve removed 9680 rows and 15360 columns (presolve time = 135s) ...
Presolve removed 17360 rows and 15360 columns (presolve time = 141s) ...
Presolve removed 17360 rows and 15360 columns (presolve time = 146s) ...
Presolve removed 17360 rows and 15360 columns (presolve time = 150s) ...
Presolve removed 17360 rows and 15360 columns (presolve time = 157s) ...
Presolve removed 17360 rows and 15360 columns (presolve time = 163s) ...
Presolve removed 17360 rows and 15360 columns
Presolve time: 163.35s
Presolved: 885224 rows, 629224 columns, 15305705 nonzeros
Presolved model has 1000 quadratic objective terms
Variable types: 373224 continuous, 256000 integer (256000 binary)
Root relaxation presolve removed 10000 rows and 10000 columns (presolve time = 6s) ...
Root relaxation presolve removed 256000 rows and 256000 columns (presolve time = 10s) ...
Root relaxation presolve removed 256000 rows and 256000 columns (presolve time = 15s) ...
Root relaxation presolve removed 256000 rows and 256000 columns (presolve time = 20s) ...
Root relaxation presolve removed 256000 rows and 256000 columns (presolve time = 25s) ...
Root relaxation presolve removed 256000 rows and 256000 columns (presolve time = 30s) ...
Root relaxation presolve removed 256000 rows and 256000 columns (presolve time = 35s) ...
Root relaxation presolve removed 256000 rows and 256000 columns (presolve time = 40s) ...
Root relaxation presolve removed 256000 rows and 256000 columns (presolve time = 45s) ...
Root relaxation presolve removed 256000 rows and 256000 columns (presolve time = 50s) ...
Root relaxation presolve removed 256000 rows and 256000 columns (presolve time = 55s) ...
Root relaxation presolve removed 256000 rows and 256000 columns (presolve time = 60s) ...
Root relaxation presolve removed 256000 rows and 256000 columns (presolve time = 65s) ...
Root relaxation presolve removed 256000 rows and 256000 columns (presolve time = 70s) ...
Root relaxation presolve removed 256000 rows and 256000 columns (presolve time = 75s) ...
Root relaxation presolve removed 256000 rows and 256000 columns (presolve time = 80s) ...
Root relaxation presolve removed 256000 rows and 256000 columns (presolve time = 85s) ...
Root relaxation presolve removed 256000 rows and 256000 columns (presolve time = 90s) ...
Root relaxation presolve removed 256000 rows and 256000 columns (presolve time = 95s) ...
Root relaxation presolve removed 256000 rows and 256000 columns (presolve time = 100s) ...
Root relaxation presolve removed 256000 rows and 256000 columns (presolve time = 105s) ...
Root relaxation presolve removed 256000 rows and 256000 columns (presolve time = 110s) ...
Root relaxation presolve removed 256000 rows and 256000 columns (presolve time = 115s) ...
Root relaxation presolve removed 256000 rows and 256000 columns (presolve time = 120s) ...
Root relaxation presolve removed 256000 rows and 256000 columns (presolve time = 125s) ...
Root relaxation presolve removed 256000 rows and 256000 columns (presolve time = 130s) ...
Root relaxation presolve removed 256000 rows and 256000 columns (presolve time = 135s) ...
Root relaxation presolve removed 256000 rows and 256000 columns (presolve time = 140s) ...
Root relaxation presolve removed 256000 rows and 256000 columns (presolve time = 145s) ...
Root relaxation presolve removed 256000 rows and 256000 columns (presolve time = 150s) ...
Root relaxation presolve removed 256000 rows and 256000 columns (presolve time = 155s) ...
Root relaxation presolve removed 256000 rows and 256000 columns (presolve time = 160s) ...
Root relaxation presolve removed 256000 rows and 256000 columns (presolve time = 165s) ...
Root relaxation presolve removed 256000 rows and 256000 columns (presolve time = 170s) ...
Root relaxation presolve removed 256000 rows and 256000 columns (presolve time = 175s) ...
Root relaxation presolve removed 256000 rows and 256000 columns (presolve time = 180s) ...
Root relaxation presolve removed 256000 rows and 256000 columns (presolve time = 185s) ...
Root relaxation presolve removed 256000 rows and 256000 columns (presolve time = 190s) ...
Root relaxation presolve removed 256000 rows and 256000 columns (presolve time = 195s) ...
Root relaxation presolve removed 256000 rows and 256000 columns (presolve time = 200s) ...
Root relaxation presolve removed 256000 rows and 256000 columns (presolve time = 205s) ...
Root relaxation presolve removed 256000 rows and 256000 columns (presolve time = 210s) ...
Root relaxation presolve removed 256000 rows and 256000 columns (presolve time = 215s) ...
Root relaxation presolve removed 256000 rows and 256000 columns (presolve time = 220s) ...
Root relaxation presolve removed 256000 rows and 256000 columns (presolve time = 225s) ...
Root relaxation presolve removed 256000 rows and 256000 columns (presolve time = 230s) ...
Root relaxation presolve removed 256000 rows and 256000 columns (presolve time = 235s) ...
Root relaxation presolve removed 256000 rows and 256000 columns (presolve time = 240s) ...
Root relaxation presolve removed 256000 rows and 256000 columns (presolve time = 245s) ...
Root relaxation presolve removed 256000 rows and 256000 columns (presolve time = 250s) ...
Root relaxation presolve removed 256000 rows and 256000 columns (presolve time = 255s) ...
Root relaxation presolve removed 256000 rows and 256000 columns (presolve time = 260s) ...
Root relaxation presolve removed 256000 rows and 256000 columns (presolve time = 265s) ...
Root relaxation presolve removed 256000 rows and 256000 columns (presolve time = 270s) ...
Root relaxation presolve removed 256000 rows and 256000 columns (presolve time = 275s) ...
Root relaxation presolve removed 256000 rows and 256000 columns (presolve time = 280s) ...
Root relaxation presolve removed 256000 rows and 256000 columns (presolve time = 285s) ...
Root relaxation presolve removed 256000 rows and 256000 columns (presolve time = 290s) ...
Root relaxation presolve removed 256000 rows and 256000 columns (presolve time = 295s) ...
Root relaxation presolve removed 256000 rows and 256000 columns (presolve time = 300s) ...
Root relaxation presolve removed 256000 rows and 256000 columns (presolve time = 305s) ...
Root relaxation presolve removed 256000 rows and 256000 columns (presolve time = 310s) ...
Root relaxation presolve removed 256000 rows and 256000 columns (presolve time = 315s) ...
Root relaxation presolve removed 256000 rows and 256000 columns (presolve time = 320s) ...
Root relaxation presolve removed 256000 rows and 256000 columns (presolve time = 325s) ...
Root relaxation presolve removed 256000 rows and 256000 columns (presolve time = 330s) ...
Root relaxation presolve removed 256000 rows and 256000 columns (presolve time = 335s) ...
Root relaxation presolve removed 256000 rows and 256000 columns (presolve time = 340s) ...
Root relaxation presolve removed 256000 rows and 256000 columns (presolve time = 345s) ...
Root relaxation presolve removed 256000 rows and 256000 columns (presolve time = 350s) ...
Root relaxation presolve removed 256000 rows and 256000 columns (presolve time = 355s) ...
Root relaxation presolve removed 256000 rows and 256000 columns (presolve time = 360s) ...
Root relaxation presolve removed 256000 rows and 256000 columns (presolve time = 365s) ...
Root relaxation presolve removed 256000 rows and 256000 columns (presolve time = 370s) ...
Root relaxation presolve removed 256000 rows and 256000 columns (presolve time = 375s) ...
Root relaxation presolve removed 256000 rows and 256000 columns (presolve time = 380s) ...
Root relaxation presolve removed 256000 rows and 256000 columns (presolve time = 385s) ...
Root relaxation presolve removed 256000 rows and 256000 columns (presolve time = 390s) ...
Root relaxation presolve removed 256000 rows and 256000 columns (presolve time = 395s) ...
Root relaxation presolve removed 256000 rows and 256000 columns (presolve time = 400s) ...
Root relaxation presolve removed 256000 rows and 256000 columns (presolve time = 405s) ...
Root relaxation presolve removed 256000 rows and 256000 columns
Root relaxation presolved: 629224 rows, 373224 columns, 14537705 nonzeros
Root relaxation presolved model has 1000 quadratic objective terms


Root simplex log...

Iteration    Objective       Primal Inf.    Dual Inf.      Time
       0    3.3736300e+01   0.000000e+00   0.000000e+00    600s
    1065    3.3736300e+01   3.324094e+05   0.000000e+00    600s
   19295    3.3736300e+01   2.980609e+04   0.000000e+00    606s
   51104    3.3736300e+01   2.207960e+04   0.000000e+00    611s
   82917    3.3736300e+01   1.557041e+04   0.000000e+00    617s
   98823    3.3736300e+01   1.246179e+04   0.000000e+00    620s
  130598    3.3736300e+01   5.957286e+03   0.000000e+00    629s
  142820    3.3736300e+01   3.407181e+03   0.000000e+00    634s
  155280    3.3736300e+01   6.623166e+02   0.000000e+00    640s
  165090    3.3736300e+01   7.037129e+01   0.000000e+00    648s
  169113    3.3736300e+01   0.000000e+00   0.000000e+00    652s
  169113    3.3736300e+01   0.000000e+00   0.000000e+00    656s

Root relaxation: objective 3.373630e+01, 169113 iterations, 468.88 seconds (648.90 work units)

    Nodes    |    Current Node    |     Objective Bounds      |     Work
 Expl Unexpl |  Obj  Depth IntInf | Incumbent    BestBd   Gap | It/Node Time

     0     0      -    -    -              -   33.73630      -     -  718s
     0     0      -    -    -              -   33.73630      -     -  755s
     0     2      -    -    -              -   33.73630      -     - 3383s
     1     4      -    -    -              -   33.73630      -     - 3392s
     3     8      -    -    -              -   33.73630      -     - 3399s
     7    16      -    -    -              -   33.73630      -     - 3408s
    15    32      -    -    -              -   33.73630      -     - 3479s
    31    48      -    -    -              -   33.73630      -     - 3770s
    47    64      -    -    -              -   33.73630      -     - 3776s
    63    80      -    -    -              -   33.73630      -     - 3782s
    79    96      -    -    -              -   33.73630      -     - 3801s
    95   112      -    -    -              -   33.73630      -     - 4142s
   111   132      -    -    -              -   33.73630      -     - 4150s
   131   149      -    -    -              -   33.73630      -     - 4200s
   148   167      -    -    -              -   33.73630      -     - 4272s
   166   187      -    -    -              -   33.73630      -     - 4292s
   186   209      -    -    -              -   33.73630      -     - 4314s
   208   234      -    -    -              -   33.73630      -     - 4384s
   212   234      -    -    -              -   33.73630      -     - 4385s
   233   262      -    -    -              -   33.73630      -     - 4425s
   261   293      -    -    -              -   33.73630      -     - 4697s
   292   329      -    -    -              -   33.73630      -     - 4710s
   328   366      -    -    -              -   33.73630      -     - 4722s
   365   407      -    -    -              -   33.73630      -     - 4769s
   406   454      -    -    -              -   33.73630      -     - 4803s
   453   504      -    -    -              -   33.73630      -     - 5074s
   503   549      -    -    -              -   33.73630      -     - 5370s
   548   596      -    -    -              -   33.73630      -     - 5410s
   595   663      -    -    -              -   33.73630      -     - 5516s
   662   730      -    -    -              -   33.73630      -     - 5536s
   729   792      -    -    -              -   33.73630      -     - 5583s
   791   860      -    -    -              -   33.73630      -     - 5636s
   859   907      -    -    -              -   33.73630      -     - 5668s
